RT is False
Default write of storage_offers_DA.csv just to have a file (but constraint should be inactive)
Reading model...
...model read.
creating competitive generators file...
...competitive generators recorded.
Loading data...
.. day-ahead data with real-time VRE data read.
Compiling instance...
...instance created.
Creating Offer Mitigation (model will solve as dispatch if TRUE)...
NOTE: storage offers will not be mitigated
...storage offer mitigation file created
Converting model to MPEC...
...converted
NOTE: initial MIP solve with only storage competitive to get feasible solution
Solving...

Welcome to IBM(R) ILOG(R) CPLEX(R) Interactive Optimizer 12.9.0.0
  with Simplex, Mixed Integer & Barrier Optimizers
5725-A06 5725-A29 5724-Y48 5724-Y49 5724-Y54 5724-Y55 5655-Y21
Copyright IBM Corp. 1988, 2019.  All Rights Reserved.

Type 'help' for a list of available commands.
Type 'help' followed by a command name for more
information on commands.

CPLEX> Logfile 'cplex.log' closed.
Logfile 'C:\Users\llavin\Desktop\test826\logs\tmpfey6lx9b.cplex.log' open.
CPLEX> New value for parallel optimization mode: -1
CPLEX> New value for emphasis for MIP optimization: 1
CPLEX> New value for mixed integer optimality gap tolerance: 0.01
CPLEX> New value for integrality tolerance: 1e-12
CPLEX> New value for deterministic time limit in ticks: 75000
CPLEX> Problem 'C:\Users\llavin\Desktop\test826\logs\tmpcp1zxm31.pyomo.lp' read.
Read time = 0.22 sec. (13.92 ticks)
CPLEX> Problem name         : C:\Users\llavin\Desktop\test826\logs\tmpcp1zxm31.pyomo.lp
Objective sense      : Maximize
Variables            :   53809  [Nneg: 1,  Box: 22004,  Free: 4464,
                                 Binary: 27340]
Objective nonzeros   :    9029
Linear constraints   :  123253  [Less: 41346,  Greater: 59096,  Equal: 22811]
  Nonzeros           :  293217
  RHS nonzeros       :   67491

Variables            : Min LB: -5000.000        Max UB: 1000000.       
Objective nonzeros   : Min   : 0.008333333      Max   : 2500.000       
Linear constraints   :
  Nonzeros           : Min   : 0.008333333      Max   : 1000000.       
  RHS nonzeros       : Min   : 0.008333333      Max   : 1000000.       
CPLEX> CPXPARAM_Parallel                                -1
CPXPARAM_Emphasis_MIP                            1
CPXPARAM_DetTimeLimit                            75000
CPXPARAM_MIP_Tolerances_MIPGap                   0.01
CPXPARAM_MIP_Tolerances_Integrality              9.9999999999999998e-13
Tried aggregator 4 times.
MIP Presolve eliminated 88669 rows and 18972 columns.
MIP Presolve added 3377 rows and 0 columns.
MIP Presolve modified 24853 coefficients.
Aggregator did 12985 substitutions.
Reduced MIP has 24976 rows, 21296 columns, and 71859 nonzeros.
Reduced MIP has 8418 binaries, 0 generals, 0 SOSs, and 0 indicators.
Presolve time = 0.33 sec. (192.34 ticks)
Probing fixed 369 vars, tightened 3869 bounds.
Probing time = 0.08 sec. (19.65 ticks)
Tried aggregator 2 times.
MIP Presolve eliminated 843 rows and 746 columns.
MIP Presolve modified 3037 coefficients.
Aggregator did 37 substitutions.
Reduced MIP has 24096 rows, 20513 columns, and 69316 nonzeros.
Reduced MIP has 8045 binaries, 0 generals, 0 SOSs, and 0 indicators.
Presolve time = 0.11 sec. (88.25 ticks)
Probing fixed 1 vars, tightened 253 bounds.
Probing time = 0.14 sec. (23.87 ticks)
Clique table members: 45028.
MIP emphasis: integer feasibility.
MIP search method: dynamic search.
Parallel mode: opportunistic, using up to 32 threads.
Root relaxation solution time = 0.41 sec. (600.32 ticks)

        Nodes                                         Cuts/
   Node  Left     Objective  IInf  Best Integer    Best Bound    ItCnt     Gap

      0     0        0.0000    78                      0.0000     5137         
*     0+    0                            0.0000        0.0000             0.00%
      0     0        cutoff              0.0000        0.0000     5137    0.00%
Elapsed time = 1.69 sec. (1378.17 ticks, tree = 0.01 MB, solutions = 1)

Root node processing (before b&c):
  Real time             =    1.70 sec. (1380.11 ticks)
Parallel b&c, 32 threads:
  Real time             =    0.00 sec. (0.00 ticks)
  Sync time (average)   =    0.00 sec.
  Wait time (average)   =    0.00 sec.
                          ------------
Total (root+branch&cut) =    1.70 sec. (1380.11 ticks)

Solution pool: 1 solution saved.

MIP - Integer optimal solution:  Objective =  1.5861587599e-09
Solution time =    1.72 sec.  Iterations = 5137  Nodes = 0
Deterministic time = 1380.27 ticks  (802.95 ticks/sec)

CPLEX> Incumbent solution written to file 'C:\Users\llavin\Desktop\test826\logs\tmp0yos8_j6.cplex.sol'.
CPLEX> NOTE: no warmstart specified for MIP iteration, default behavior is true
NOTE: resolving with all competitive generators using storage-only solution to warmstart
Solving...

Welcome to IBM(R) ILOG(R) CPLEX(R) Interactive Optimizer 12.9.0.0
  with Simplex, Mixed Integer & Barrier Optimizers
5725-A06 5725-A29 5724-Y48 5724-Y49 5724-Y54 5724-Y55 5655-Y21
Copyright IBM Corp. 1988, 2019.  All Rights Reserved.

Type 'help' for a list of available commands.
Type 'help' followed by a command name for more
information on commands.

CPLEX> Logfile 'cplex.log' closed.
Logfile 'C:\Users\llavin\Desktop\test826\logs\tmpmpn86dw7.cplex.log' open.
CPLEX> New value for parallel optimization mode: -1
CPLEX> New value for emphasis for MIP optimization: 1
CPLEX> New value for mixed integer optimality gap tolerance: 0.01
CPLEX> New value for integrality tolerance: 1e-12
CPLEX> New value for deterministic time limit in ticks: 75000
CPLEX> Problem 'C:\Users\llavin\Desktop\test826\logs\tmp_bc3aw05.pyomo.lp' read.
Read time = 0.25 sec. (13.94 ticks)
CPLEX> MIP start file 'C:\Users\llavin\Desktop\test826\logs\tmp55l_9lhs.cplex.mst' read.
CPLEX> Problem name         : C:\Users\llavin\Desktop\test826\logs\tmp_bc3aw05.pyomo.lp
Objective sense      : Maximize
Variables            :   54529  [Nneg: 1,  Box: 22724,  Free: 4464,
                                 Binary: 27340]
Objective nonzeros   :    9725
Linear constraints   :  123253  [Less: 41346,  Greater: 59096,  Equal: 22811]
  Nonzeros           :  293217
  RHS nonzeros       :   67491

Variables            : Min LB: -5000.000        Max UB: 1000000.       
Objective nonzeros   : Min   : 0.008333333      Max   : 2500.000       
Linear constraints   :
  Nonzeros           : Min   : 0.008333333      Max   : 1000000.       
  RHS nonzeros       : Min   : 0.008333333      Max   : 1000000.       
CPLEX> CPXPARAM_Parallel                                -1
CPXPARAM_Emphasis_MIP                            1
CPXPARAM_DetTimeLimit                            75000
CPXPARAM_MIP_Tolerances_MIPGap                   0.01
CPXPARAM_MIP_Tolerances_Integrality              9.9999999999999998e-13
Warning:  No solution found from 1 MIP starts.
Retaining values of one MIP start for possible repair.
Tried aggregator 4 times.
MIP Presolve eliminated 88669 rows and 19692 columns.
MIP Presolve added 3377 rows and 0 columns.
MIP Presolve modified 24853 coefficients.
Aggregator did 12985 substitutions.
Reduced MIP has 24976 rows, 21296 columns, and 71859 nonzeros.
Reduced MIP has 8418 binaries, 0 generals, 0 SOSs, and 0 indicators.
Presolve time = 0.33 sec. (192.75 ticks)
Probing fixed 369 vars, tightened 3869 bounds.
Probing time = 0.08 sec. (19.65 ticks)
Tried aggregator 2 times.
MIP Presolve eliminated 843 rows and 746 columns.
MIP Presolve modified 3037 coefficients.
Aggregator did 37 substitutions.
Reduced MIP has 24096 rows, 20513 columns, and 69316 nonzeros.
Reduced MIP has 8045 binaries, 0 generals, 0 SOSs, and 0 indicators.
Presolve time = 0.11 sec. (88.25 ticks)
Probing fixed 1 vars, tightened 253 bounds.
Probing time = 0.17 sec. (23.87 ticks)
Clique table members: 45028.
MIP emphasis: integer feasibility.
MIP search method: dynamic search.
Parallel mode: opportunistic, using up to 32 threads.
Root relaxation solution time = 0.47 sec. (646.06 ticks)

        Nodes                                         Cuts/
   Node  Left     Objective  IInf  Best Integer    Best Bound    ItCnt     Gap

      0     0   137435.2910   247                 137435.2910     5585         
      0     0   131646.9064   198                   Cuts: 138     5795         
      0     0   130329.1471   198                    Cuts: 91     5894         
      0     0   130218.5102   198                    Cuts: 23     5907         
Repair heuristic found nothing.
      0    24   120127.2324   177                     Cuts: 7     6176         
Elapsed time = 4.31 sec. (1919.85 ticks, tree = 0.02 MB, solutions = 0)
    659   537    97586.5552   151                 127461.9956    13404         
   1170   876    49647.4833   124                 127461.9956    18471         
   1778  1237     2458.8256    34                 127461.9956    31876         
   2443  1531   -45410.0966    44                 127461.9956    39833         
   3056  1958  -103421.4157    73                 127461.9956    52346         
   3665  2259   -24912.8045    42                 126598.4034    65339         
   4231  2640    13328.2839    83                 126598.4034    85460         
*  4326+ 1577                            0.0000   126598.4034              --- 
   4874  2910    -5928.3596   100        0.0000   126034.9218   102146     --- 
   7176  2537     9082.2789    84        0.0000   121724.0470   176167     --- 
Elapsed time = 19.11 sec. (4826.87 ticks, tree = 132.13 MB, solutions = 1)
*  8209+ 1929                            0.0000    16133.5450              --- 
*  8209+ 1285                            0.0000     6152.9797              --- 
   8209  1284        cutoff              0.0000        0.0000   232911  -97.46%

Implied bound cuts applied:  6
Flow cuts applied:  16
Mixed integer rounding cuts applied:  2
Lift and project cuts applied:  2
Gomory fractional cuts applied:  1
Warning: integer solution contains unscaled infeasibilities.

Root node processing (before b&c):
  Real time             =    2.92 sec. (1893.04 ticks)
Parallel b&c, 32 threads:
  Real time             =   21.86 sec. (6043.50 ticks)
  Sync time (average)   =    1.21 sec.
  Wait time (average)   =    0.00 sec.
                          ------------
Total (root+branch&cut) =   24.78 sec. (7936.54 ticks)

Solution pool: 3 solutions saved.

Maximum unscaled integer infeasibility = 9.81637e-10.
MIP - Integer optimal with unscaled infeasibilities:  Objective =  8.5425417637e-06
Solution time =   24.80 sec.  Iterations = 232911  Nodes = 8209
Deterministic time = 7936.69 ticks  (320.07 ticks/sec)

CPLEX> Incumbent solution written to file 'C:\Users\llavin\Desktop\test826\logs\tmpo7mcm8jx.cplex.sol'.
CPLEX> Exporting results... 
